c 9th DIMACS Implementation Challenge: Shortest Paths
c http://www.dis.uniroma1.it/~challenge9
c TIGER/Line graph USA-road-d.NY
c
p sp 264346 733846
c graph contains 264346 nodes and 733846 arcs
c
a 1 2 1
a 2 3 3
a 3 1 1
a 4 3 5
a 5 6 8
a 6 4 4
a 1 5 5
a 6 2 7